
Gurobi 9.5.1 (mac64[x86]) logging started Thu Aug  4 02:52:53 2022

Set parameter LogFile to value "/Users/keyvanmajd/Documents/GitHub/NNRepLayer_v2/demos/walking_example/dynamic_constraint/repair_net_relaxed/logs/opt_log_8_4_2022_2_52_8.log"
Gurobi Optimizer version 9.5.1 build v9.5.1rc2 (mac64[x86])
Thread count: 4 physical cores, 8 logical processors, using up to 8 threads
Optimize a model with 15674 rows, 9951 columns and 178838 nonzeros
Model fingerprint: 0xe834397a
Model has 270 quadratic objective terms
Variable types: 5631 continuous, 4320 integer (4320 binary)
Coefficient statistics:
  Matrix range     [2e-03, 1e+02]
  Objective range  [3e-03, 2e+00]
  QObjective range [7e-02, 7e-02]
  Bounds range     [6e-05, 3e+02]
  RHS range        [1e-04, 1e+02]
Presolve removed 0 rows and 88 columns
Presolve time: 0.02s

Explored 0 nodes (0 simplex iterations) in 0.02 seconds (0.00 work units)
Thread count was 1 (of 8 available processors)

Solution count 0

Model is infeasible
Best objective -, best bound -, gap -
